
Gurobi 11.0.3 (linux64, gurobi_cl) logging started Fri Sep 20 18:56:33 2024

Set parameter Username
Set parameter LogFile to value "gurobi.log"
Using license file /users/twaheed/gurobi.lic
Academic license - for non-commercial use only - expires 2025-09-20
